Input: forum-13crafc.prec25.dzn
============================================================
Total Runtime: 2.3243 seconds
Input parsing: 0.0009 seconds
Constraint building: 0.5503 seconds
MaxSAT solving: 1.3744 seconds
============================================================

Total variables: 175946
Total clauses: 370266
MaxSAT found with cost: 0
NO SOLUTION FOUND
